(set-option :auto-config false)
(set-option :produce-unsat-cores false)
(set-option :smt.mbqi.max_iterations 10000000)
(set-option :smt.relevancy 0)
(declare-fun c0 () Bool)
(define-fun e1 () Bool (not c0))
(declare-fun c2 () Bool)
(define-fun e3 () Bool (and c2 e1))
(define-fun e4 () Bool (not e3))
(define-fun e5 () Bool (and e1 e4))
(declare-fun c6 () Bool)
(define-fun e7 () Bool (not c2))
(define-fun e8 () Bool (and c6 e1 e7))
(define-fun e9 () Bool (not e8))
(define-fun e10 () Bool (and e5 e9))
(declare-fun c11 () Bool)
(define-fun e12 () Bool (not c6))
(define-fun e13 () Bool (and c11 e1 e7 e12))
(define-fun e14 () Bool (not e13))
(define-fun e15 () Bool (and e10 e14))
(define-fun e16 () Bool (not c11))
(define-fun e17 () Bool (and e1 e7 e12 e16))
(define-fun e18 () Bool (not e17))
(define-fun e19 () Bool (and e15 e18))
(define-fun e20 () Bool (not e15))
(define-fun e21 () Bool (or e17 e20))
(define-fun e22 () Bool (not e21))
(define-fun e25 ((c23 (_ BitVec 64)) (c24 (_ BitVec 64))) (_ BitVec 64) (_ bv256 64))
(define-fun e26 ((c23 (_ BitVec 64)) (c24 (_ BitVec 64))) Bool (bvult c23 (e25 c23 c24)))
(define-fun e27 ((c23 (_ BitVec 64)) (c24 (_ BitVec 64))) (_ BitVec 64) (_ bv512 64))
(define-fun e28 ((c23 (_ BitVec 64)) (c24 (_ BitVec 64))) Bool (bvult c24 (e27 c23 c24)))
(define-fun e29 ((c23 (_ BitVec 64)) (c24 (_ BitVec 64))) Bool (and (e26 c23 c24) (e28 c23 c24)))
(define-fun e30 ((c23 (_ BitVec 64)) (c24 (_ BitVec 64))) Bool (not (e29 c23 c24)))
(declare-fun c31 ((_ BitVec 64) (_ BitVec 64)) (_ BitVec 64))
(define-fun e32 ((c23 (_ BitVec 64)) (c24 (_ BitVec 64))) (_ BitVec 64) (c31 c23 c24))
(declare-fun c33 ((_ BitVec 64) (_ BitVec 64)) (_ BitVec 64))
(define-fun e34 ((c23 (_ BitVec 64)) (c24 (_ BitVec 64))) (_ BitVec 64) (c33 c23 c24))
(define-fun e35 ((c23 (_ BitVec 64)) (c24 (_ BitVec 64))) Bool (= (e32 c23 c24) (e34 c23 c24)))
(define-fun e36 ((c23 (_ BitVec 64)) (c24 (_ BitVec 64))) Bool (or (e30 c23 c24) (e35 c23 c24)))
(define-fun e37 () Bool (forall ((c23 (_ BitVec 64)) (c24 (_ BitVec 64))) (e36 c23 c24)))
(define-fun e38 () Bool (and e14 e37))
(declare-fun c39 () Bool)
(declare-fun c40 () Bool)
(define-fun e41 () Bool (and (=> c39 c40) (=> c40 c39)))
(declare-fun c42 () (_ BitVec 64))
(declare-fun c43 () (_ BitVec 64))
(define-fun e44 () Bool (= c42 c43))
(define-fun e45 () Bool (and c39 e44))
(declare-fun c46 () (_ BitVec 64))
(define-fun e47 () Bool (= c46 c43))
(define-fun e48 () Bool (and c40 e47))
(define-fun e49 () Bool (and (=> e45 e48) (=> e48 e45)))
(define-fun e50 () (_ BitVec 64) (_ bv1024 64))
(define-fun e51 () Bool (bvult c43 e50))
(define-fun e52 () (_ BitVec 64) (_ bv1 64))
(declare-fun c53 ((_ BitVec 64)) (_ BitVec 64))
(define-fun e54 () (_ BitVec 64) (c53 c43))
(define-fun e55 () Bool (= e52 e54))
(define-fun e56 () Bool (and e51 e55))
(declare-fun c57 ((_ BitVec 64) (_ BitVec 64)) (_ BitVec 64))
(define-fun e58 () (_ BitVec 64) (_ bv2 64))
(define-fun e59 () (_ BitVec 64) (c57 c43 e58))
(define-fun e60 () Bool (= e52 e59))
(define-fun e61 () Bool (and e56 e60))
(declare-fun c62 ((_ BitVec 64)) (_ BitVec 64))
(define-fun e63 () (_ BitVec 64) (c62 c43))
(define-fun e64 () Bool (= e52 e63))
(define-fun e65 () Bool (and e51 e64))
(declare-fun c66 ((_ BitVec 64) (_ BitVec 64)) (_ BitVec 64))
(define-fun e67 () (_ BitVec 64) (c66 c43 e58))
(define-fun e68 () Bool (= e52 e67))
(define-fun e69 () Bool (and e65 e68))
(define-fun e70 () Bool (and (=> e61 e69) (=> e69 e61)))
(declare-fun c71 () (_ BitVec 64))
(declare-fun c72 () (_ BitVec 64))
(define-fun e73 () Bool (= c71 c72))
(declare-fun c74 () (_ BitVec 64))
(declare-fun c75 () (_ BitVec 64))
(define-fun e76 () Bool (= c74 c75))
(declare-fun c77 () (_ BitVec 64))
(declare-fun c78 () (_ BitVec 64))
(define-fun e79 () Bool (= c77 c78))
(declare-fun c80 () (_ BitVec 64))
(declare-fun c81 () (_ BitVec 64))
(define-fun e82 () Bool (= c80 c81))
(declare-fun c83 () (_ BitVec 64))
(declare-fun c84 () (_ BitVec 64))
(define-fun e85 () Bool (= c83 c84))
(declare-fun c86 () (_ BitVec 64))
(declare-fun c87 () (_ BitVec 64))
(define-fun e88 () Bool (= c86 c87))
(declare-fun c89 () (_ BitVec 64))
(declare-fun c90 () (_ BitVec 64))
(define-fun e91 () Bool (= c89 c90))
(declare-fun c92 () (_ BitVec 64))
(declare-fun c93 () (_ BitVec 64))
(define-fun e94 () Bool (= c92 c93))
(declare-fun c95 () (_ BitVec 64))
(declare-fun c96 () (_ BitVec 64))
(define-fun e97 () Bool (= c95 c96))
(declare-fun c98 () (_ BitVec 64))
(declare-fun c99 () (_ BitVec 64))
(define-fun e100 () Bool (= c98 c99))
(declare-fun c101 () (_ BitVec 64))
(declare-fun c102 () (_ BitVec 64))
(define-fun e103 () Bool (= c101 c102))
(declare-fun c104 () (_ BitVec 64))
(declare-fun c105 () (_ BitVec 64))
(define-fun e106 () Bool (= c104 c105))
(declare-fun c107 () (_ BitVec 64))
(declare-fun c108 () (_ BitVec 64))
(define-fun e109 () Bool (= c107 c108))
(declare-fun c110 () (_ BitVec 64))
(declare-fun c111 () (_ BitVec 64))
(define-fun e112 () Bool (= c110 c111))
(declare-fun c113 () (_ BitVec 64))
(declare-fun c114 () (_ BitVec 64))
(define-fun e115 () Bool (= c113 c114))
(declare-fun c116 () (_ BitVec 64))
(declare-fun c117 () (_ BitVec 64))
(define-fun e118 () Bool (= c116 c117))
(declare-fun c119 () (_ BitVec 64))
(declare-fun c120 () (_ BitVec 64))
(define-fun e121 () Bool (= c119 c120))
(declare-fun c122 () (_ BitVec 64))
(declare-fun c123 () (_ BitVec 64))
(define-fun e124 () Bool (= c122 c123))
(declare-fun c125 () (_ BitVec 64))
(declare-fun c126 () (_ BitVec 64))
(define-fun e127 () Bool (= c125 c126))
(declare-fun c128 () (_ BitVec 64))
(declare-fun c129 () (_ BitVec 64))
(define-fun e130 () Bool (= c128 c129))
(declare-fun c131 () (_ BitVec 64))
(declare-fun c132 () (_ BitVec 64))
(define-fun e133 () Bool (= c131 c132))
(declare-fun c134 () (_ BitVec 64))
(declare-fun c135 () (_ BitVec 64))
(define-fun e136 () Bool (= c134 c135))
(declare-fun c137 () (_ BitVec 64))
(declare-fun c138 () (_ BitVec 64))
(define-fun e139 () Bool (= c137 c138))
(declare-fun c140 () (_ BitVec 64))
(declare-fun c141 () (_ BitVec 64))
(define-fun e142 () Bool (= c140 c141))
(declare-fun c143 () (_ BitVec 64))
(declare-fun c144 () (_ BitVec 64))
(define-fun e145 () Bool (= c143 c144))
(declare-fun c146 () (_ BitVec 64))
(declare-fun c147 () (_ BitVec 64))
(define-fun e148 () Bool (= c146 c147))
(declare-fun c149 () (_ BitVec 64))
(declare-fun c150 () (_ BitVec 64))
(define-fun e151 () Bool (= c149 c150))
(declare-fun c152 () (_ BitVec 64))
(declare-fun c153 () (_ BitVec 64))
(define-fun e154 () Bool (= c152 c153))
(declare-fun c155 () (_ BitVec 64))
(declare-fun c156 () (_ BitVec 64))
(define-fun e157 () Bool (= c155 c156))
(declare-fun c158 () (_ BitVec 64))
(declare-fun c159 () (_ BitVec 64))
(define-fun e160 () Bool (= c158 c159))
(declare-fun c161 () (_ BitVec 64))
(declare-fun c162 () (_ BitVec 64))
(define-fun e163 () Bool (= c161 c162))
(declare-fun c164 () (_ BitVec 64))
(declare-fun c165 () (_ BitVec 64))
(define-fun e166 () Bool (= c164 c165))
(declare-fun c167 () (_ BitVec 64))
(declare-fun c168 () (_ BitVec 64))
(define-fun e169 () Bool (= c167 c168))
(declare-fun c170 () (_ BitVec 64))
(declare-fun c171 () (_ BitVec 64))
(define-fun e172 () Bool (= c170 c171))
(declare-fun c173 () (_ BitVec 64))
(declare-fun c174 () (_ BitVec 64))
(define-fun e175 () Bool (= c173 c174))
(declare-fun c176 () (_ BitVec 64))
(declare-fun c177 () (_ BitVec 64))
(define-fun e178 () Bool (= c176 c177))
(declare-fun c179 () (_ BitVec 64))
(declare-fun c180 () (_ BitVec 64))
(define-fun e181 () Bool (= c179 c180))
(declare-fun c182 () (_ BitVec 64))
(declare-fun c183 () (_ BitVec 64))
(define-fun e184 () Bool (= c182 c183))
(declare-fun c185 () (_ BitVec 64))
(declare-fun c186 () (_ BitVec 64))
(define-fun e187 () Bool (= c185 c186))
(declare-fun c188 () (_ BitVec 64))
(declare-fun c189 () (_ BitVec 64))
(define-fun e190 () Bool (= c188 c189))
(declare-fun c191 () (_ BitVec 64))
(declare-fun c192 () (_ BitVec 64))
(define-fun e193 () Bool (= c191 c192))
(declare-fun c194 () (_ BitVec 64))
(declare-fun c195 () (_ BitVec 64))
(define-fun e196 () Bool (= c194 c195))
(declare-fun c197 () (_ BitVec 64))
(declare-fun c198 () (_ BitVec 64))
(define-fun e199 () Bool (= c197 c198))
(define-fun e200 () Bool (and e76 e79 e82 e85 e88 e91 e94 e97 e100 e103 e106 e109 e112 e115 e118 e121 e124 e127 e130 e133 e136 e139 e142 e145 e148 e151 e154 e157 e160 e163 e166 e169 e172 e175 e178 e181 e184 e187 e190 e193 e196 e199))
(define-fun e201 () Bool (and e73 e200))
(define-fun e202 () Bool (not e48))
(define-fun e203 () Bool (or e201 e202))
(define-fun e205 ((c204 (_ BitVec 64))) (_ BitVec 64) (_ bv1024 64))
(define-fun e206 ((c204 (_ BitVec 64))) Bool (bvult c204 (e205 c204)))
(define-fun e207 ((c204 (_ BitVec 64))) Bool (not (e206 c204)))
(define-fun e208 ((c204 (_ BitVec 64))) (_ BitVec 64) (_ bv0 64))
(define-fun e209 ((c204 (_ BitVec 64))) (_ BitVec 64) (c53 c204))
(define-fun e210 ((c204 (_ BitVec 64))) Bool (= (e208 c204) (e209 c204)))
(define-fun e211 ((c204 (_ BitVec 64))) Bool (and (e206 c204) (e210 c204)))
(define-fun e212 ((c204 (_ BitVec 64))) Bool (not (e211 c204)))
(declare-fun c213 ((_ BitVec 64)) (_ BitVec 64))
(define-fun e214 ((c204 (_ BitVec 64))) (_ BitVec 64) (c213 c204))
(define-fun e215 ((c204 (_ BitVec 64))) Bool (= c43 (e214 c204)))
(define-fun e216 ((c204 (_ BitVec 64))) Bool (and (e206 c204) (e212 c204) (e215 c204)))
(define-fun e217 ((c204 (_ BitVec 64))) (_ BitVec 64) (c62 c204))
(define-fun e218 ((c204 (_ BitVec 64))) Bool (= (e208 c204) (e217 c204)))
(define-fun e219 ((c204 (_ BitVec 64))) Bool (and (e206 c204) (e218 c204)))
(define-fun e220 ((c204 (_ BitVec 64))) Bool (not (e219 c204)))
(declare-fun c221 ((_ BitVec 64)) (_ BitVec 64))
(define-fun e222 ((c204 (_ BitVec 64))) (_ BitVec 64) (c221 c204))
(define-fun e223 ((c204 (_ BitVec 64))) Bool (= c43 (e222 c204)))
(define-fun e224 ((c204 (_ BitVec 64))) Bool (and (e206 c204) (e220 c204) (e223 c204)))
(define-fun e225 ((c204 (_ BitVec 64))) Bool (and (=> (e216 c204) (e224 c204)) (=> (e224 c204) (e216 c204))))
(define-fun e226 ((c204 (_ BitVec 64))) Bool (or (e207 c204) (e225 c204)))
(define-fun e227 () Bool (forall ((c204 (_ BitVec 64))) (e226 c204)))
(define-fun e228 ((c204 (_ BitVec 64))) Bool (= (e209 c204) (e217 c204)))
(define-fun e229 ((c204 (_ BitVec 64))) Bool (not (e224 c204)))
(define-fun e230 ((c204 (_ BitVec 64))) Bool (or (e228 c204) (e229 c204)))
(define-fun e231 () Bool (forall ((c204 (_ BitVec 64))) (e230 c204)))
(define-fun e233 ((c204 (_ BitVec 64)) (c232 (_ BitVec 64))) (_ BitVec 64) (c57 c204 c232))
(define-fun e234 ((c204 (_ BitVec 64)) (c232 (_ BitVec 64))) (_ BitVec 64) (c66 c204 c232))
(define-fun e235 ((c204 (_ BitVec 64)) (c232 (_ BitVec 64))) Bool (= (e233 c204 c232) (e234 c204 c232)))
(define-fun e236 ((c204 (_ BitVec 64)) (c232 (_ BitVec 64))) (_ BitVec 64) (_ bv512 64))
(define-fun e237 ((c204 (_ BitVec 64)) (c232 (_ BitVec 64))) Bool (bvult c232 (e236 c204 c232)))
(define-fun e238 ((c204 (_ BitVec 64)) (c232 (_ BitVec 64))) (_ BitVec 64) (_ bv1024 64))
(define-fun e239 ((c204 (_ BitVec 64)) (c232 (_ BitVec 64))) Bool (bvult c204 (e238 c204 c232)))
(define-fun e240 ((c204 (_ BitVec 64)) (c232 (_ BitVec 64))) (_ BitVec 64) (_ bv0 64))
(define-fun e241 ((c204 (_ BitVec 64)) (c232 (_ BitVec 64))) (_ BitVec 64) (c62 c204))
(define-fun e242 ((c204 (_ BitVec 64)) (c232 (_ BitVec 64))) Bool (= (e240 c204 c232) (e241 c204 c232)))
(define-fun e243 ((c204 (_ BitVec 64)) (c232 (_ BitVec 64))) Bool (and (e239 c204 c232) (e242 c204 c232)))
(define-fun e244 ((c204 (_ BitVec 64)) (c232 (_ BitVec 64))) Bool (not (e243 c204 c232)))
(define-fun e245 ((c204 (_ BitVec 64)) (c232 (_ BitVec 64))) (_ BitVec 64) (c221 c204))
(define-fun e246 ((c204 (_ BitVec 64)) (c232 (_ BitVec 64))) Bool (= c43 (e245 c204 c232)))
(define-fun e247 ((c204 (_ BitVec 64)) (c232 (_ BitVec 64))) Bool (and (e239 c204 c232) (e244 c204 c232) (e246 c204 c232)))
(define-fun e248 ((c204 (_ BitVec 64)) (c232 (_ BitVec 64))) Bool (and (e237 c204 c232) (e247 c204 c232)))
(define-fun e249 ((c204 (_ BitVec 64)) (c232 (_ BitVec 64))) Bool (not (e248 c204 c232)))
(define-fun e250 ((c204 (_ BitVec 64)) (c232 (_ BitVec 64))) Bool (or (e235 c204 c232) (e249 c204 c232)))
(define-fun e251 () Bool (forall ((c204 (_ BitVec 64)) (c232 (_ BitVec 64))) (e250 c204 c232)))
(declare-fun c252 ((_ BitVec 64) (_ BitVec 64)) (_ BitVec 64))
(define-fun e253 ((c204 (_ BitVec 64)) (c232 (_ BitVec 64))) (_ BitVec 64) (c252 c204 c232))
(declare-fun c254 ((_ BitVec 64) (_ BitVec 64)) (_ BitVec 64))
(define-fun e255 ((c204 (_ BitVec 64)) (c232 (_ BitVec 64))) (_ BitVec 64) (c254 c204 c232))
(define-fun e256 ((c204 (_ BitVec 64)) (c232 (_ BitVec 64))) Bool (= (e253 c204 c232) (e255 c204 c232)))
(declare-fun c257 ((_ BitVec 64) (_ BitVec 64)) Bool)
(define-fun e258 ((c204 (_ BitVec 64)) (c232 (_ BitVec 64))) Bool (c257 c204 c232))
(declare-fun c259 ((_ BitVec 64) (_ BitVec 64)) Bool)
(define-fun e260 ((c204 (_ BitVec 64)) (c232 (_ BitVec 64))) Bool (c259 c204 c232))
(define-fun e261 ((c204 (_ BitVec 64)) (c232 (_ BitVec 64))) Bool (and (=> (e258 c204 c232) (e260 c204 c232)) (=> (e260 c204 c232) (e258 c204 c232))))
(declare-fun c262 ((_ BitVec 64) (_ BitVec 64)) Bool)
(define-fun e263 ((c204 (_ BitVec 64)) (c232 (_ BitVec 64))) Bool (c262 c204 c232))
(declare-fun c264 ((_ BitVec 64) (_ BitVec 64)) Bool)
(define-fun e265 ((c204 (_ BitVec 64)) (c232 (_ BitVec 64))) Bool (c264 c204 c232))
(define-fun e266 ((c204 (_ BitVec 64)) (c232 (_ BitVec 64))) Bool (and (=> (e263 c204 c232) (e265 c204 c232)) (=> (e265 c204 c232) (e263 c204 c232))))
(declare-fun c267 ((_ BitVec 64) (_ BitVec 64)) (_ BitVec 64))
(define-fun e268 ((c204 (_ BitVec 64)) (c232 (_ BitVec 64))) (_ BitVec 64) (c267 c204 c232))
(declare-fun c269 ((_ BitVec 64) (_ BitVec 64)) (_ BitVec 64))
(define-fun e270 ((c204 (_ BitVec 64)) (c232 (_ BitVec 64))) (_ BitVec 64) (c269 c204 c232))
(define-fun e271 ((c204 (_ BitVec 64)) (c232 (_ BitVec 64))) Bool (= (e268 c204 c232) (e270 c204 c232)))
(define-fun e272 ((c204 (_ BitVec 64)) (c232 (_ BitVec 64))) Bool (and (e256 c204 c232) (e261 c204 c232) (e266 c204 c232) (e271 c204 c232)))
(define-fun e273 ((c204 (_ BitVec 64)) (c232 (_ BitVec 64))) Bool (or (e272 c204 c232) (e249 c204 c232)))
(define-fun e274 () Bool (forall ((c204 (_ BitVec 64)) (c232 (_ BitVec 64))) (e273 c204 c232)))
(define-fun e275 () Bool (and e227 e231 e251 e274))
(define-fun e276 () Bool (not e69))
(define-fun e277 () Bool (or e275 e276))
(define-fun e278 () Bool (and e41 e49 e70 e203 e277))
(define-fun e279 () Bool (and e13 e278))
(define-fun e280 () Bool (or e38 e279))
(define-fun e281 () Bool (and e9 e280))
(declare-fun c282 () (_ BitVec 64))
(define-fun e283 () Bool (= c42 c282))
(define-fun e284 () Bool (and c39 e283))
(define-fun e285 () Bool (= c46 c282))
(define-fun e286 () Bool (and c40 e285))
(define-fun e287 () Bool (and (=> e284 e286) (=> e286 e284)))
(define-fun e288 () Bool (bvult c282 e50))
(define-fun e289 () (_ BitVec 64) (c53 c282))
(define-fun e290 () Bool (= e52 e289))
(define-fun e291 () Bool (and e288 e290))
(define-fun e292 () (_ BitVec 64) (c57 c282 e58))
(define-fun e293 () Bool (= e52 e292))
(define-fun e294 () Bool (and e291 e293))
(define-fun e295 () (_ BitVec 64) (c62 c282))
(define-fun e296 () Bool (= e52 e295))
(define-fun e297 () Bool (and e288 e296))
(define-fun e298 () (_ BitVec 64) (c66 c282 e58))
(define-fun e299 () Bool (= e52 e298))
(define-fun e300 () Bool (and e297 e299))
(define-fun e301 () Bool (and (=> e294 e300) (=> e300 e294)))
(define-fun e302 () Bool (not e286))
(define-fun e303 () Bool (or e201 e302))
(define-fun e304 ((c204 (_ BitVec 64))) Bool (= c282 (e214 c204)))
(define-fun e305 ((c204 (_ BitVec 64))) Bool (and (e206 c204) (e212 c204) (e304 c204)))
(define-fun e306 ((c204 (_ BitVec 64))) Bool (= c282 (e222 c204)))
(define-fun e307 ((c204 (_ BitVec 64))) Bool (and (e206 c204) (e220 c204) (e306 c204)))
(define-fun e308 ((c204 (_ BitVec 64))) Bool (and (=> (e305 c204) (e307 c204)) (=> (e307 c204) (e305 c204))))
(define-fun e309 ((c204 (_ BitVec 64))) Bool (or (e207 c204) (e308 c204)))
(define-fun e310 () Bool (forall ((c204 (_ BitVec 64))) (e309 c204)))
(define-fun e311 ((c204 (_ BitVec 64))) Bool (not (e307 c204)))
(define-fun e312 ((c204 (_ BitVec 64))) Bool (or (e228 c204) (e311 c204)))
(define-fun e313 () Bool (forall ((c204 (_ BitVec 64))) (e312 c204)))
(define-fun e314 ((c204 (_ BitVec 64)) (c232 (_ BitVec 64))) Bool (= c282 (e245 c204 c232)))
(define-fun e315 ((c204 (_ BitVec 64)) (c232 (_ BitVec 64))) Bool (and (e239 c204 c232) (e244 c204 c232) (e314 c204 c232)))
(define-fun e316 ((c204 (_ BitVec 64)) (c232 (_ BitVec 64))) Bool (and (e237 c204 c232) (e315 c204 c232)))
(define-fun e317 ((c204 (_ BitVec 64)) (c232 (_ BitVec 64))) Bool (not (e316 c204 c232)))
(define-fun e318 ((c204 (_ BitVec 64)) (c232 (_ BitVec 64))) Bool (or (e235 c204 c232) (e317 c204 c232)))
(define-fun e319 () Bool (forall ((c204 (_ BitVec 64)) (c232 (_ BitVec 64))) (e318 c204 c232)))
(define-fun e320 ((c204 (_ BitVec 64)) (c232 (_ BitVec 64))) Bool (or (e272 c204 c232) (e317 c204 c232)))
(define-fun e321 () Bool (forall ((c204 (_ BitVec 64)) (c232 (_ BitVec 64))) (e320 c204 c232)))
(define-fun e322 () Bool (and e310 e313 e319 e321))
(define-fun e323 () Bool (not e300))
(define-fun e324 () Bool (or e322 e323))
(define-fun e325 () Bool (and e41 e287 e301 e303 e324))
(define-fun e326 () Bool (and e8 e325))
(define-fun e327 () Bool (or e281 e326))
(define-fun e328 () Bool (and e4 e327))
(define-fun e329 () Bool (= c42 c46))
(declare-fun c330 () (_ BitVec 64))
(declare-fun c331 () (_ BitVec 64))
(define-fun e332 () Bool (= c330 c331))
(declare-fun c333 () (_ BitVec 64))
(declare-fun c334 () (_ BitVec 64))
(define-fun e335 () Bool (= c333 c334))
(declare-fun c336 () (_ BitVec 64))
(declare-fun c337 () (_ BitVec 64))
(define-fun e338 () Bool (= c336 c337))
(declare-fun c339 () (_ BitVec 64))
(declare-fun c340 () (_ BitVec 64))
(define-fun e341 () Bool (= c339 c340))
(declare-fun c342 () (_ BitVec 64))
(declare-fun c343 () (_ BitVec 64))
(define-fun e344 () Bool (= c342 c343))
(declare-fun c345 () (_ BitVec 64))
(declare-fun c346 () (_ BitVec 64))
(define-fun e347 () Bool (= c345 c346))
(declare-fun c348 () (_ BitVec 64))
(declare-fun c349 () (_ BitVec 64))
(define-fun e350 () Bool (= c348 c349))
(declare-fun c351 () (_ BitVec 64))
(declare-fun c352 () (_ BitVec 64))
(define-fun e353 () Bool (= c351 c352))
(declare-fun c354 () (_ BitVec 64))
(declare-fun c355 () (_ BitVec 64))
(define-fun e356 () Bool (= c354 c355))
(declare-fun c357 () (_ BitVec 64))
(declare-fun c358 () (_ BitVec 64))
(define-fun e359 () Bool (= c357 c358))
(declare-fun c360 () (_ BitVec 64))
(declare-fun c361 () (_ BitVec 64))
(define-fun e362 () Bool (= c360 c361))
(declare-fun c363 () (_ BitVec 64))
(declare-fun c364 () (_ BitVec 64))
(define-fun e365 () Bool (= c363 c364))
(declare-fun c366 () (_ BitVec 64))
(declare-fun c367 () (_ BitVec 64))
(define-fun e368 () Bool (= c366 c367))
(declare-fun c369 () (_ BitVec 64))
(declare-fun c370 () (_ BitVec 64))
(define-fun e371 () Bool (= c369 c370))
(declare-fun c372 () (_ BitVec 64))
(declare-fun c373 () (_ BitVec 64))
(define-fun e374 () Bool (= c372 c373))
(declare-fun c375 () (_ BitVec 64))
(declare-fun c376 () (_ BitVec 64))
(define-fun e377 () Bool (= c375 c376))
(declare-fun c378 () (_ BitVec 64))
(declare-fun c379 () (_ BitVec 64))
(define-fun e380 () Bool (= c378 c379))
(declare-fun c381 () (_ BitVec 64))
(declare-fun c382 () (_ BitVec 64))
(define-fun e383 () Bool (= c381 c382))
(declare-fun c384 () (_ BitVec 64))
(declare-fun c385 () (_ BitVec 64))
(define-fun e386 () Bool (= c384 c385))
(declare-fun c387 () (_ BitVec 64))
(declare-fun c388 () (_ BitVec 64))
(define-fun e389 () Bool (= c387 c388))
(declare-fun c390 () (_ BitVec 64))
(declare-fun c391 () (_ BitVec 64))
(define-fun e392 () Bool (= c390 c391))
(declare-fun c393 () (_ BitVec 64))
(declare-fun c394 () (_ BitVec 64))
(define-fun e395 () Bool (= c393 c394))
(declare-fun c396 () (_ BitVec 64))
(declare-fun c397 () (_ BitVec 64))
(define-fun e398 () Bool (= c396 c397))
(declare-fun c399 () (_ BitVec 64))
(declare-fun c400 () (_ BitVec 64))
(define-fun e401 () Bool (= c399 c400))
(declare-fun c402 () (_ BitVec 64))
(declare-fun c403 () (_ BitVec 64))
(define-fun e404 () Bool (= c402 c403))
(declare-fun c405 () (_ BitVec 64))
(declare-fun c406 () (_ BitVec 64))
(define-fun e407 () Bool (= c405 c406))
(declare-fun c408 () (_ BitVec 64))
(declare-fun c409 () (_ BitVec 64))
(define-fun e410 () Bool (= c408 c409))
(declare-fun c411 () (_ BitVec 64))
(declare-fun c412 () (_ BitVec 64))
(define-fun e413 () Bool (= c411 c412))
(declare-fun c414 () (_ BitVec 64))
(declare-fun c415 () (_ BitVec 64))
(define-fun e416 () Bool (= c414 c415))
(declare-fun c417 () (_ BitVec 64))
(declare-fun c418 () (_ BitVec 64))
(define-fun e419 () Bool (= c417 c418))
(declare-fun c420 () (_ BitVec 64))
(declare-fun c421 () (_ BitVec 64))
(define-fun e422 () Bool (= c420 c421))
(declare-fun c423 () (_ BitVec 64))
(declare-fun c424 () (_ BitVec 64))
(define-fun e425 () Bool (= c423 c424))
(declare-fun c426 () (_ BitVec 64))
(declare-fun c427 () (_ BitVec 64))
(define-fun e428 () Bool (= c426 c427))
(declare-fun c429 () (_ BitVec 64))
(declare-fun c430 () (_ BitVec 64))
(define-fun e431 () Bool (= c429 c430))
(declare-fun c432 () (_ BitVec 64))
(declare-fun c433 () (_ BitVec 64))
(define-fun e434 () Bool (= c432 c433))
(declare-fun c435 () (_ BitVec 64))
(declare-fun c436 () (_ BitVec 64))
(define-fun e437 () Bool (= c435 c436))
(declare-fun c438 () (_ BitVec 64))
(declare-fun c439 () (_ BitVec 64))
(define-fun e440 () Bool (= c438 c439))
(declare-fun c441 () (_ BitVec 64))
(declare-fun c442 () (_ BitVec 64))
(define-fun e443 () Bool (= c441 c442))
(declare-fun c444 () (_ BitVec 64))
(declare-fun c445 () (_ BitVec 64))
(define-fun e446 () Bool (= c444 c445))
(declare-fun c447 () (_ BitVec 64))
(declare-fun c448 () (_ BitVec 64))
(define-fun e449 () Bool (= c447 c448))
(declare-fun c450 () (_ BitVec 64))
(declare-fun c451 () (_ BitVec 64))
(define-fun e452 () Bool (= c450 c451))
(declare-fun c453 () (_ BitVec 64))
(declare-fun c454 () (_ BitVec 64))
(define-fun e455 () Bool (= c453 c454))
(define-fun e456 () Bool (and e332 e335 e338 e341 e344 e347 e350 e353 e356 e359 e362 e365 e368 e371 e374 e377 e380 e383 e386 e389 e392 e395 e398 e401 e404 e407 e410 e413 e416 e419 e422 e425 e428 e431 e434 e437 e440 e443 e446 e449 e452 e455))
(define-fun e458 ((c457 (_ BitVec 64))) (_ BitVec 64) (_ bv1024 64))
(define-fun e459 ((c457 (_ BitVec 64))) Bool (bvult c457 (e458 c457)))
(define-fun e460 ((c457 (_ BitVec 64))) Bool (not (e459 c457)))
(define-fun e461 ((c457 (_ BitVec 64))) (_ BitVec 64) (c53 c457))
(define-fun e462 ((c457 (_ BitVec 64))) (_ BitVec 64) (c62 c457))
(define-fun e463 ((c457 (_ BitVec 64))) Bool (= (e461 c457) (e462 c457)))
(define-fun e464 ((c457 (_ BitVec 64))) Bool (or (e460 c457) (e463 c457)))
(define-fun e465 () Bool (forall ((c457 (_ BitVec 64))) (e464 c457)))
(define-fun e466 ((c457 (_ BitVec 64))) (_ BitVec 64) (c213 c457))
(define-fun e467 ((c457 (_ BitVec 64))) (_ BitVec 64) (c221 c457))
(define-fun e468 ((c457 (_ BitVec 64))) Bool (= (e466 c457) (e467 c457)))
(define-fun e469 ((c457 (_ BitVec 64))) Bool (or (e460 c457) (e468 c457)))
(define-fun e470 () Bool (forall ((c457 (_ BitVec 64))) (e469 c457)))
(define-fun e471 () Bool (or c40 e200))
(define-fun e473 ((c457 (_ BitVec 64)) (c472 (_ BitVec 64))) (_ BitVec 64) (c57 c457 c472))
(define-fun e474 ((c457 (_ BitVec 64)) (c472 (_ BitVec 64))) (_ BitVec 64) (c66 c457 c472))
(define-fun e475 ((c457 (_ BitVec 64)) (c472 (_ BitVec 64))) Bool (= (e473 c457 c472) (e474 c457 c472)))
(define-fun e476 ((c457 (_ BitVec 64)) (c472 (_ BitVec 64))) (_ BitVec 64) (c252 c457 c472))
(define-fun e477 ((c457 (_ BitVec 64)) (c472 (_ BitVec 64))) (_ BitVec 64) (c254 c457 c472))
(define-fun e478 ((c457 (_ BitVec 64)) (c472 (_ BitVec 64))) Bool (= (e476 c457 c472) (e477 c457 c472)))
(define-fun e479 ((c457 (_ BitVec 64)) (c472 (_ BitVec 64))) Bool (c257 c457 c472))
(define-fun e480 ((c457 (_ BitVec 64)) (c472 (_ BitVec 64))) Bool (c259 c457 c472))
(define-fun e481 ((c457 (_ BitVec 64)) (c472 (_ BitVec 64))) Bool (and (=> (e479 c457 c472) (e480 c457 c472)) (=> (e480 c457 c472) (e479 c457 c472))))
(define-fun e482 ((c457 (_ BitVec 64)) (c472 (_ BitVec 64))) Bool (c262 c457 c472))
(define-fun e483 ((c457 (_ BitVec 64)) (c472 (_ BitVec 64))) Bool (c264 c457 c472))
(define-fun e484 ((c457 (_ BitVec 64)) (c472 (_ BitVec 64))) Bool (and (=> (e482 c457 c472) (e483 c457 c472)) (=> (e483 c457 c472) (e482 c457 c472))))
(define-fun e485 ((c457 (_ BitVec 64)) (c472 (_ BitVec 64))) (_ BitVec 64) (c267 c457 c472))
(define-fun e486 ((c457 (_ BitVec 64)) (c472 (_ BitVec 64))) (_ BitVec 64) (c269 c457 c472))
(define-fun e487 ((c457 (_ BitVec 64)) (c472 (_ BitVec 64))) Bool (= (e485 c457 c472) (e486 c457 c472)))
(define-fun e488 ((c457 (_ BitVec 64)) (c472 (_ BitVec 64))) Bool (and (e475 c457 c472) (e478 c457 c472) (e481 c457 c472) (e484 c457 c472) (e487 c457 c472)))
(define-fun e489 ((c457 (_ BitVec 64)) (c472 (_ BitVec 64))) (_ BitVec 64) (_ bv1024 64))
(define-fun e490 ((c457 (_ BitVec 64)) (c472 (_ BitVec 64))) Bool (bvult c457 (e489 c457 c472)))
(define-fun e491 ((c457 (_ BitVec 64)) (c472 (_ BitVec 64))) (_ BitVec 64) (_ bv512 64))
(define-fun e492 ((c457 (_ BitVec 64)) (c472 (_ BitVec 64))) Bool (bvult c472 (e491 c457 c472)))
(define-fun e493 ((c457 (_ BitVec 64)) (c472 (_ BitVec 64))) (_ BitVec 64) (_ bv3 64))
(define-fun e494 ((c457 (_ BitVec 64)) (c472 (_ BitVec 64))) (_ BitVec 64) (c62 c457))
(define-fun e495 ((c457 (_ BitVec 64)) (c472 (_ BitVec 64))) Bool (= (e493 c457 c472) (e494 c457 c472)))
(define-fun e496 ((c457 (_ BitVec 64)) (c472 (_ BitVec 64))) Bool (and (e490 c457 c472) (e495 c457 c472)))
(define-fun e497 ((c457 (_ BitVec 64)) (c472 (_ BitVec 64))) (_ BitVec 64) (_ bv4 64))
(define-fun e498 ((c457 (_ BitVec 64)) (c472 (_ BitVec 64))) Bool (= (e497 c457 c472) (e494 c457 c472)))
(define-fun e499 ((c457 (_ BitVec 64)) (c472 (_ BitVec 64))) Bool (and (e490 c457 c472) (e498 c457 c472)))
(define-fun e500 ((c457 (_ BitVec 64)) (c472 (_ BitVec 64))) (_ BitVec 64) (_ bv5 64))
(define-fun e501 ((c457 (_ BitVec 64)) (c472 (_ BitVec 64))) Bool (= (e500 c457 c472) (e494 c457 c472)))
(define-fun e502 ((c457 (_ BitVec 64)) (c472 (_ BitVec 64))) Bool (and (e490 c457 c472) (e501 c457 c472)))
(define-fun e503 ((c457 (_ BitVec 64)) (c472 (_ BitVec 64))) Bool (or (e496 c457 c472) (e499 c457 c472) (e502 c457 c472)))
(define-fun e504 ((c457 (_ BitVec 64)) (c472 (_ BitVec 64))) Bool (and (e490 c457 c472) (e492 c457 c472) (e503 c457 c472)))
(define-fun e505 ((c457 (_ BitVec 64)) (c472 (_ BitVec 64))) Bool (not (e504 c457 c472)))
(define-fun e506 ((c457 (_ BitVec 64)) (c472 (_ BitVec 64))) Bool (or (e488 c457 c472) (e505 c457 c472)))
(define-fun e507 () Bool (forall ((c457 (_ BitVec 64)) (c472 (_ BitVec 64))) (e506 c457 c472)))
(define-fun e508 ((c457 (_ BitVec 64))) (_ BitVec 64) (_ bv2 64))
(define-fun e509 ((c457 (_ BitVec 64))) (_ BitVec 64) (c57 c457 (e508 c457)))
(define-fun e510 ((c457 (_ BitVec 64))) (_ BitVec 64) (c66 c457 (e508 c457)))
(define-fun e511 ((c457 (_ BitVec 64))) Bool (= (e509 c457) (e510 c457)))
(define-fun e512 ((c457 (_ BitVec 64))) (_ BitVec 64) (_ bv1 64))
(define-fun e513 ((c457 (_ BitVec 64))) (_ BitVec 64) (c57 c457 (e512 c457)))
(define-fun e514 ((c457 (_ BitVec 64))) (_ BitVec 64) (c66 c457 (e512 c457)))
(define-fun e515 ((c457 (_ BitVec 64))) Bool (= (e513 c457) (e514 c457)))
(define-fun e516 ((c457 (_ BitVec 64))) (_ BitVec 64) (_ bv0 64))
(define-fun e517 ((c457 (_ BitVec 64))) (_ BitVec 64) (c57 c457 (e516 c457)))
(define-fun e518 ((c457 (_ BitVec 64))) (_ BitVec 64) (c66 c457 (e516 c457)))
(define-fun e519 ((c457 (_ BitVec 64))) Bool (= (e517 c457) (e518 c457)))
(define-fun e520 ((c457 (_ BitVec 64))) Bool (and (e511 c457) (e515 c457) (e519 c457)))
(define-fun e521 ((c457 (_ BitVec 64))) Bool (= (e512 c457) (e462 c457)))
(define-fun e522 ((c457 (_ BitVec 64))) Bool (and (e459 c457) (e521 c457)))
(define-fun e523 ((c457 (_ BitVec 64))) Bool (not (e522 c457)))
(define-fun e524 ((c457 (_ BitVec 64))) Bool (or (e520 c457) (e523 c457)))
(define-fun e525 () Bool (forall ((c457 (_ BitVec 64))) (e524 c457)))
(define-fun e526 ((c457 (_ BitVec 64))) Bool (= (e508 c457) (e462 c457)))
(define-fun e527 ((c457 (_ BitVec 64))) Bool (and (e459 c457) (e526 c457)))
(define-fun e528 ((c457 (_ BitVec 64))) Bool (not (e527 c457)))
(define-fun e529 ((c457 (_ BitVec 64))) Bool (or (e519 c457) (e528 c457)))
(define-fun e530 () Bool (forall ((c457 (_ BitVec 64))) (e529 c457)))
(define-fun e531 () Bool (and e37 e73 e329 e41 e456 e465 e470 e471 e507 e525 e530))
(define-fun e532 () Bool (and e3 e531))
(define-fun e533 () Bool (or e328 e532))
(define-fun e534 () Bool (and e1 e533))
(define-fun e535 () Bool (and c0 e531))
(define-fun e536 () Bool (or e534 e535))
(define-fun e537 () Bool (not e45))
(define-fun e538 () Bool (or e537 e201))
(define-fun e539 () Bool (not e61))
(define-fun e540 ((c204 (_ BitVec 64))) Bool (not (e216 c204)))
(define-fun e541 ((c204 (_ BitVec 64))) Bool (or (e540 c204) (e228 c204)))
(define-fun e542 () Bool (forall ((c204 (_ BitVec 64))) (e541 c204)))
(define-fun e543 ((c204 (_ BitVec 64)) (c232 (_ BitVec 64))) (_ BitVec 64) (c53 c204))
(define-fun e544 ((c204 (_ BitVec 64)) (c232 (_ BitVec 64))) Bool (= (e240 c204 c232) (e543 c204 c232)))
(define-fun e545 ((c204 (_ BitVec 64)) (c232 (_ BitVec 64))) Bool (and (e239 c204 c232) (e544 c204 c232)))
(define-fun e546 ((c204 (_ BitVec 64)) (c232 (_ BitVec 64))) Bool (not (e545 c204 c232)))
(define-fun e547 ((c204 (_ BitVec 64)) (c232 (_ BitVec 64))) (_ BitVec 64) (c213 c204))
(define-fun e548 ((c204 (_ BitVec 64)) (c232 (_ BitVec 64))) Bool (= c43 (e547 c204 c232)))
(define-fun e549 ((c204 (_ BitVec 64)) (c232 (_ BitVec 64))) Bool (and (e239 c204 c232) (e546 c204 c232) (e548 c204 c232)))
(define-fun e550 ((c204 (_ BitVec 64)) (c232 (_ BitVec 64))) Bool (and (e237 c204 c232) (e549 c204 c232)))
(define-fun e551 ((c204 (_ BitVec 64)) (c232 (_ BitVec 64))) Bool (not (e550 c204 c232)))
(define-fun e552 ((c204 (_ BitVec 64)) (c232 (_ BitVec 64))) Bool (or (e551 c204 c232) (e235 c204 c232)))
(define-fun e553 () Bool (forall ((c204 (_ BitVec 64)) (c232 (_ BitVec 64))) (e552 c204 c232)))
(define-fun e554 ((c204 (_ BitVec 64)) (c232 (_ BitVec 64))) Bool (or (e551 c204 c232) (e272 c204 c232)))
(define-fun e555 () Bool (forall ((c204 (_ BitVec 64)) (c232 (_ BitVec 64))) (e554 c204 c232)))
(define-fun e556 () Bool (and e227 e542 e553 e555))
(define-fun e557 () Bool (or e539 e556))
(define-fun e558 () Bool (and e41 e49 e538 e70 e557))
(define-fun e559 () Bool (and e13 e558))
(define-fun e560 () Bool (or e38 e559))
(define-fun e561 () Bool (and e9 e560))
(define-fun e562 () Bool (not e284))
(define-fun e563 () Bool (or e562 e201))
(define-fun e564 () Bool (not e294))
(define-fun e565 ((c204 (_ BitVec 64))) Bool (not (e305 c204)))
(define-fun e566 ((c204 (_ BitVec 64))) Bool (or (e565 c204) (e228 c204)))
(define-fun e567 () Bool (forall ((c204 (_ BitVec 64))) (e566 c204)))
(define-fun e568 ((c204 (_ BitVec 64)) (c232 (_ BitVec 64))) Bool (= c282 (e547 c204 c232)))
(define-fun e569 ((c204 (_ BitVec 64)) (c232 (_ BitVec 64))) Bool (and (e239 c204 c232) (e546 c204 c232) (e568 c204 c232)))
(define-fun e570 ((c204 (_ BitVec 64)) (c232 (_ BitVec 64))) Bool (and (e569 c204 c232) (e237 c204 c232)))
(define-fun e571 ((c204 (_ BitVec 64)) (c232 (_ BitVec 64))) Bool (not (e570 c204 c232)))
(define-fun e572 ((c204 (_ BitVec 64)) (c232 (_ BitVec 64))) Bool (or (e571 c204 c232) (e235 c204 c232)))
(define-fun e573 () Bool (forall ((c204 (_ BitVec 64)) (c232 (_ BitVec 64))) (e572 c204 c232)))
(define-fun e574 ((c204 (_ BitVec 64)) (c232 (_ BitVec 64))) Bool (or (e571 c204 c232) (e272 c204 c232)))
(define-fun e575 () Bool (forall ((c204 (_ BitVec 64)) (c232 (_ BitVec 64))) (e574 c204 c232)))
(define-fun e576 () Bool (and e310 e567 e573 e575))
(define-fun e577 () Bool (or e564 e576))
(define-fun e578 () Bool (and e41 e287 e563 e301 e577))
(define-fun e579 () Bool (and e8 e578))
(define-fun e580 () Bool (or e561 e579))
(define-fun e581 () Bool (and e4 e580))
(define-fun e582 () Bool (or c39 e200))
(define-fun e583 ((c457 (_ BitVec 64)) (c472 (_ BitVec 64))) (_ BitVec 64) (c53 c457))
(define-fun e584 ((c457 (_ BitVec 64)) (c472 (_ BitVec 64))) Bool (= (e493 c457 c472) (e583 c457 c472)))
(define-fun e585 ((c457 (_ BitVec 64)) (c472 (_ BitVec 64))) Bool (and (e490 c457 c472) (e584 c457 c472)))
(define-fun e586 ((c457 (_ BitVec 64)) (c472 (_ BitVec 64))) Bool (= (e497 c457 c472) (e583 c457 c472)))
(define-fun e587 ((c457 (_ BitVec 64)) (c472 (_ BitVec 64))) Bool (and (e490 c457 c472) (e586 c457 c472)))
(define-fun e588 ((c457 (_ BitVec 64)) (c472 (_ BitVec 64))) Bool (= (e500 c457 c472) (e583 c457 c472)))
(define-fun e589 ((c457 (_ BitVec 64)) (c472 (_ BitVec 64))) Bool (and (e490 c457 c472) (e588 c457 c472)))
(define-fun e590 ((c457 (_ BitVec 64)) (c472 (_ BitVec 64))) Bool (or (e585 c457 c472) (e587 c457 c472) (e589 c457 c472)))
(define-fun e591 ((c457 (_ BitVec 64)) (c472 (_ BitVec 64))) Bool (and (e490 c457 c472) (e492 c457 c472) (e590 c457 c472)))
(define-fun e592 ((c457 (_ BitVec 64)) (c472 (_ BitVec 64))) Bool (not (e591 c457 c472)))
(define-fun e593 ((c457 (_ BitVec 64)) (c472 (_ BitVec 64))) Bool (or (e592 c457 c472) (e488 c457 c472)))
(define-fun e594 () Bool (forall ((c457 (_ BitVec 64)) (c472 (_ BitVec 64))) (e593 c457 c472)))
(define-fun e595 ((c457 (_ BitVec 64))) Bool (= (e512 c457) (e461 c457)))
(define-fun e596 ((c457 (_ BitVec 64))) Bool (and (e459 c457) (e595 c457)))
(define-fun e597 ((c457 (_ BitVec 64))) Bool (not (e596 c457)))
(define-fun e598 ((c457 (_ BitVec 64))) Bool (or (e597 c457) (e520 c457)))
(define-fun e599 () Bool (forall ((c457 (_ BitVec 64))) (e598 c457)))
(define-fun e600 ((c457 (_ BitVec 64))) Bool (= (e508 c457) (e461 c457)))
(define-fun e601 ((c457 (_ BitVec 64))) Bool (and (e459 c457) (e600 c457)))
(define-fun e602 ((c457 (_ BitVec 64))) Bool (not (e601 c457)))
(define-fun e603 ((c457 (_ BitVec 64))) Bool (or (e602 c457) (e519 c457)))
(define-fun e604 () Bool (forall ((c457 (_ BitVec 64))) (e603 c457)))
(define-fun e605 () Bool (and e37 e73 e329 e41 e456 e582 e465 e470 e594 e599 e604))
(define-fun e606 () Bool (and e3 e605))
(define-fun e607 () Bool (or e581 e606))
(define-fun e608 () Bool (and e1 e607))
(define-fun e609 () Bool (and c0 e605))
(define-fun e610 () Bool (or e608 e609))
(define-fun e611 () Bool (not e610))
(define-fun e612 () Bool (or e536 e611))
(define-fun e613 () Bool (not e612))
(define-fun e614 () Bool (or e19 e22 e613))
(assert e614)
(check-sat)
